Route #1: 1 2 14 13 21 32 33 34 15 3 9 10 4 16 25 11 5 17 26 39 30 19 18 6 7 8 12 20 27 28 31 46 40 45 50 56 62 63 76 70 57 64 77 88 87 93 80 86 75 69 68 55 49 38 44 37 48 54 60 61 74 84 85 92 100 99 98 91 90 97 96 95 94 89 78 71 81 82 79 83 73 67 59 47 36 43 29 24 23 22 35 42 53 66 72 65 58 52 41 51
Cost 45067
